p edge 81 1056
e 1 11 1
e 1 21 10
e 1 31 4
e 1 41 3
e 1 51 2
e 1 61 5
e 1 71 1
e 1 81 8
e 1 2 5
e 1 3 6
e 1 4 8
e 1 5 1
e 1 6 6
e 1 7 4
e 1 8 5
e 1 9 6
e 1 10 5
e 1 19 4
e 1 28 3
e 1 37 7
e 1 46 2
e 1 55 9
e 1 64 10
e 1 73 3
e 2 12 8
e 2 22 6
e 2 32 5
e 2 42 6
e 2 52 3
e 2 62 1
e 2 72 5
e 2 10 5
e 2 3 9
e 2 4 4
e 2 5 6
e 2 6 1
e 2 7 6
e 2 8 2
e 2 9 8
e 2 11 2
e 2 20 3
e 2 29 6
e 2 38 9
e 2 47 4
e 2 56 10
e 2 65 4
e 2 74 3
e 3 13 2
e 3 23 4
e 3 33 1
e 3 43 7
e 3 53 10
e 3 63 1
e 3 11 10
e 3 19 10
e 3 4 1
e 3 5 1
e 3 6 7
e 3 7 6
e 3 8 5
e 3 9 6
e 3 12 5
e 3 21 4
e 3 30 4
e 3 39 8
e 3 48 8
e 3 57 7
e 3 66 3
e 3 75 10
e 4 14 1
e 4 24 1
e 4 34 7
e 4 44 10
e 4 54 8
e 4 12 8
e 4 20 7
e 4 28 5
e 4 5 8
e 4 6 6
e 4 7 10
e 4 8 7
e 4 9 8
e 4 13 7
e 4 22 4
e 4 31 4
e 4 40 6
e 4 49 4
e 4 58 10
e 4 67 1
e 4 76 1
e 5 15 6
e 5 25 9
e 5 35 4
e 5 45 2
e 5 13 8
e 5 21 2
e 5 29 7
e 5 37 4
e 5 6 10
e 5 7 10
e 5 8 4
e 5 9 5
e 5 14 5
e 5 23 4
e 5 32 7
e 5 41 6
e 5 50 6
e 5 59 7
e 5 68 3
e 5 77 6
e 6 16 4
e 6 26 4
e 6 36 7
e 6 14 2
e 6 22 7
e 6 30 1
e 6 38 8
e 6 46 4
e 6 7 2
e 6 8 9
e 6 9 7
e 6 15 4
e 6 24 4
e 6 33 9
e 6 42 10
e 6 51 7
e 6 60 8
e 6 69 2
e 6 78 4
e 7 17 8
e 7 27 5
e 7 15 1
e 7 23 10
e 7 31 8
e 7 39 7
e 7 47 1
e 7 55 4
e 7 8 6
e 7 9 4
e 7 16 3
e 7 25 3
e 7 34 7
e 7 43 3
e 7 52 2
e 7 61 5
e 7 70 3
e 7 79 4
e 8 18 9
e 8 16 10
e 8 24 1
e 8 32 3
e 8 40 7
e 8 48 3
e 8 56 5
e 8 64 9
e 8 9 1
e 8 17 7
e 8 26 7
e 8 35 9
e 8 44 5
e 8 53 5
e 8 62 8
e 8 71 7
e 8 80 1
e 9 17 2
e 9 25 1
e 9 33 7
e 9 41 1
e 9 49 5
e 9 57 5
e 9 65 4
e 9 73 8
e 9 18 9
e 9 27 5
e 9 36 9
e 9 45 2
e 9 54 10
e 9 63 4
e 9 72 6
e 9 81 9
e 10 20 8
e 10 30 6
e 10 40 1
e 10 50 7
e 10 60 6
e 10 70 1
e 10 80 6
e 10 11 8
e 10 12 10
e 10 13 8
e 10 14 7
e 10 15 2
e 10 16 2
e 10 17 3
e 10 18 5
e 10 19 3
e 10 28 8
e 10 37 6
e 10 46 5
e 10 55 10
e 10 64 1
e 10 73 9
e 11 21 8
e 11 31 6
e 11 41 10
e 11 51 1
e 11 61 10
e 11 71 9
e 11 81 5
e 11 19 7
e 11 12 9
e 11 13 3
e 11 14 2
e 11 15 9
e 11 16 4
e 11 17 7
e 11 18 6
e 11 20 6
e 11 29 9
e 11 38 7
e 11 47 5
e 11 56 7
e 11 65 7
e 11 74 4
e 12 22 3
e 12 32 9
e 12 42 6
e 12 52 4
e 12 62 8
e 12 72 8
e 12 20 1
e 12 28 5
e 12 13 7
e 12 14 2
e 12 15 10
e 12 16 10
e 12 17 2
e 12 18 8
e 12 21 1
e 12 30 5
e 12 39 8
e 12 48 3
e 12 57 3
e 12 66 3
e 12 75 5
e 13 23 4
e 13 33 5
e 13 43 4
e 13 53 1
e 13 63 6
e 13 21 6
e 13 29 1
e 13 37 7
e 13 14 2
e 13 15 6
e 13 16 6
e 13 17 9
e 13 18 5
e 13 22 1
e 13 31 7
e 13 40 9
e 13 49 8
e 13 58 9
e 13 67 8
e 13 76 7
e 14 24 7
e 14 34 2
e 14 44 5
e 14 54 3
e 14 22 6
e 14 30 6
e 14 38 7
e 14 46 9
e 14 15 7
e 14 16 6
e 14 17 6
e 14 18 6
e 14 23 6
e 14 32 5
e 14 41 4
e 14 50 4
e 14 59 6
e 14 68 9
e 14 77 1
e 15 25 8
e 15 35 6
e 15 45 3
e 15 23 1
e 15 31 8
e 15 39 1
e 15 47 6
e 15 55 3
e 15 16 1
e 15 17 2
e 15 18 4
e 15 24 1
e 15 33 6
e 15 42 2
e 15 51 3
e 15 60 2
e 15 69 3
e 15 78 2
e 16 26 8
e 16 36 5
e 16 24 1
e 16 32 8
e 16 40 3
e 16 48 5
e 16 56 2
e 16 64 1
e 16 17 6
e 16 18 5
e 16 25 7
e 16 34 8
e 16 43 1
e 16 52 9
e 16 61 3
e 16 70 6
e 16 79 4
e 17 27 6
e 17 25 6
e 17 33 8
e 17 41 7
e 17 49 3
e 17 57 2
e 17 65 4
e 17 73 1
e 17 18 5
e 17 26 9
e 17 35 6
e 17 44 3
e 17 53 1
e 17 62 7
e 17 71 5
e 17 80 2
e 18 26 3
e 18 34 5
e 18 42 8
e 18 50 1
e 18 58 8
e 18 66 9
e 18 74 8
e 18 27 2
e 18 36 6
e 18 45 5
e 18 54 7
e 18 63 6
e 18 72 8
e 18 81 1
e 19 29 10
e 19 39 5
e 19 49 8
e 19 59 9
e 19 69 1
e 19 79 9
e 19 20 2
e 19 21 2
e 19 22 1
e 19 23 10
e 19 24 9
e 19 25 1
e 19 26 9
e 19 27 2
e 19 28 2
e 19 37 2
e 19 46 6
e 19 55 6
e 19 64 4
e 19 73 2
e 20 30 9
e 20 40 7
e 20 50 3
e 20 60 1
e 20 70 10
e 20 80 3
e 20 28 1
e 20 21 9
e 20 22 1
e 20 23 4
e 20 24 2
e 20 25 3
e 20 26 3
e 20 27 8
e 20 29 3
e 20 38 10
e 20 47 2
e 20 56 9
e 20 65 1
e 20 74 3
e 21 31 5
e 21 41 4
e 21 51 9
e 21 61 5
e 21 71 10
e 21 81 8
e 21 29 5
e 21 37 6
e 21 22 5
e 21 23 5
e 21 24 5
e 21 25 3
e 21 26 3
e 21 27 9
e 21 30 1
e 21 39 7
e 21 48 9
e 21 57 9
e 21 66 3
e 21 75 10
e 22 32 1
e 22 42 7
e 22 52 8
e 22 62 7
e 22 72 1
e 22 30 3
e 22 38 6
e 22 46 3
e 22 23 7
e 22 24 7
e 22 25 4
e 22 26 10
e 22 27 1
e 22 31 5
e 22 40 5
e 22 49 2
e 22 58 7
e 22 67 8
e 22 76 7
e 23 33 8
e 23 43 10
e 23 53 8
e 23 63 1
e 23 31 3
e 23 39 10
e 23 47 3
e 23 55 9
e 23 24 7
e 23 25 7
e 23 26 10
e 23 27 3
e 23 32 7
e 23 41 5
e 23 50 3
e 23 59 6
e 23 68 5
e 23 77 6
e 24 34 4
e 24 44 5
e 24 54 1
e 24 32 3
e 24 40 1
e 24 48 9
e 24 56 9
e 24 64 10
e 24 25 5
e 24 26 10
e 24 27 8
e 24 33 8
e 24 42 3
e 24 51 1
e 24 60 10
e 24 69 1
e 24 78 10
e 25 35 2
e 25 45 7
e 25 33 5
e 25 41 9
e 25 49 4
e 25 57 2
e 25 65 5
e 25 73 2
e 25 26 10
e 25 27 10
e 25 34 6
e 25 43 3
e 25 52 10
e 25 61 7
e 25 70 7
e 25 79 5
e 26 36 9
e 26 34 10
e 26 42 6
e 26 50 2
e 26 58 4
e 26 66 5
e 26 74 9
e 26 27 6
e 26 35 2
e 26 44 2
e 26 53 1
e 26 62 4
e 26 71 8
e 26 80 1
e 27 35 5
e 27 43 10
e 27 51 1
e 27 59 5
e 27 67 7
e 27 75 3
e 27 36 7
e 27 45 3
e 27 54 9
e 27 63 4
e 27 72 5
e 27 81 8
e 28 38 1
e 28 48 2
e 28 58 5
e 28 68 10
e 28 78 8
e 28 29 5
e 28 30 1
e 28 31 6
e 28 32 5
e 28 33 7
e 28 34 1
e 28 35 6
e 28 36 7
e 28 37 5
e 28 46 1
e 28 55 6
e 28 64 7
e 28 73 3
e 29 39 2
e 29 49 1
e 29 59 10
e 29 69 10
e 29 79 4
e 29 37 1
e 29 30 8
e 29 31 2
e 29 32 3
e 29 33 9
e 29 34 3
e 29 35 4
e 29 36 1
e 29 38 8
e 29 47 1
e 29 56 4
e 29 65 3
e 29 74 7
e 30 40 3
e 30 50 5
e 30 60 7
e 30 70 4
e 30 80 5
e 30 38 7
e 30 46 1
e 30 31 9
e 30 32 2
e 30 33 7
e 30 34 4
e 30 35 5
e 30 36 6
e 30 39 6
e 30 48 3
e 30 57 2
e 30 66 6
e 30 75 1
e 31 41 2
e 31 51 8
e 31 61 4
e 31 71 3
e 31 81 6
e 31 39 4
e 31 47 1
e 31 55 5
e 31 32 6
e 31 33 9
e 31 34 3
e 31 35 6
e 31 36 10
e 31 40 3
e 31 49 9
e 31 58 2
e 31 67 6
e 31 76 9
e 32 42 9
e 32 52 1
e 32 62 5
e 32 72 2
e 32 40 4
e 32 48 1
e 32 56 1
e 32 64 4
e 32 33 3
e 32 34 5
e 32 35 10
e 32 36 4
e 32 41 8
e 32 50 9
e 32 59 6
e 32 68 8
e 32 77 7
e 33 43 5
e 33 53 8
e 33 63 1
e 33 41 6
e 33 49 3
e 33 57 10
e 33 65 9
e 33 73 8
e 33 34 9
e 33 35 1
e 33 36 5
e 33 42 3
e 33 51 6
e 33 60 10
e 33 69 5
e 33 78 6
e 34 44 4
e 34 54 6
e 34 42 9
e 34 50 2
e 34 58 6
e 34 66 4
e 34 74 3
e 34 35 6
e 34 36 3
e 34 43 3
e 34 52 2
e 34 61 1
e 34 70 4
e 34 79 9
e 35 45 9
e 35 43 10
e 35 51 6
e 35 59 1
e 35 67 3
e 35 75 3
e 35 36 9
e 35 44 5
e 35 53 1
e 35 62 9
e 35 71 7
e 35 80 4
e 36 44 6
e 36 52 10
e 36 60 3
e 36 68 5
e 36 76 1
e 36 45 7
e 36 54 8
e 36 63 6
e 36 72 4
e 36 81 1
e 37 47 7
e 37 57 3
e 37 67 2
e 37 77 7
e 37 38 8
e 37 39 8
e 37 40 5
e 37 41 9
e 37 42 10
e 37 43 1
e 37 44 7
e 37 45 1
e 37 46 3
e 37 55 5
e 37 64 9
e 37 73 9
e 38 48 5
e 38 58 1
e 38 68 10
e 38 78 10
e 38 46 10
e 38 39 8
e 38 40 9
e 38 41 10
e 38 42 3
e 38 43 7
e 38 44 3
e 38 45 6
e 38 47 5
e 38 56 5
e 38 65 5
e 38 74 4
e 39 49 1
e 39 59 4
e 39 69 8
e 39 79 2
e 39 47 1
e 39 55 6
e 39 40 1
e 39 41 7
e 39 42 6
e 39 43 8
e 39 44 6
e 39 45 7
e 39 48 9
e 39 57 1
e 39 66 4
e 39 75 2
e 40 50 2
e 40 60 7
e 40 70 2
e 40 80 6
e 40 48 7
e 40 56 1
e 40 64 6
e 40 41 3
e 40 42 4
e 40 43 9
e 40 44 2
e 40 45 9
e 40 49 6
e 40 58 6
e 40 67 5
e 40 76 9
e 41 51 9
e 41 61 5
e 41 71 9
e 41 81 10
e 41 49 1
e 41 57 2
e 41 65 2
e 41 73 9
e 41 42 9
e 41 43 3
e 41 44 8
e 41 45 4
e 41 50 3
e 41 59 3
e 41 68 7
e 41 77 8
e 42 52 8
e 42 62 1
e 42 72 7
e 42 50 2
e 42 58 4
e 42 66 2
e 42 74 9
e 42 43 1
e 42 44 6
e 42 45 1
e 42 51 8
e 42 60 7
e 42 69 1
e 42 78 6
e 43 53 4
e 43 63 5
e 43 51 3
e 43 59 8
e 43 67 6
e 43 75 2
e 43 44 2
e 43 45 5
e 43 52 3
e 43 61 10
e 43 70 1
e 43 79 10
e 44 54 2
e 44 52 8
e 44 60 7
e 44 68 4
e 44 76 5
e 44 45 1
e 44 53 8
e 44 62 2
e 44 71 5
e 44 80 3
e 45 53 4
e 45 61 1
e 45 69 6
e 45 77 4
e 45 54 2
e 45 63 2
e 45 72 8
e 45 81 5
e 46 56 6
e 46 66 9
e 46 76 4
e 46 47 9
e 46 48 9
e 46 49 5
e 46 50 3
e 46 51 6
e 46 52 1
e 46 53 8
e 46 54 5
e 46 55 10
e 46 64 1
e 46 73 4
e 47 57 9
e 47 67 5
e 47 77 9
e 47 55 7
e 47 48 4
e 47 49 7
e 47 50 1
e 47 51 9
e 47 52 9
e 47 53 5
e 47 54 2
e 47 56 8
e 47 65 4
e 47 74 10
e 48 58 5
e 48 68 1
e 48 78 7
e 48 56 2
e 48 64 9
e 48 49 6
e 48 50 9
e 48 51 1
e 48 52 4
e 48 53 7
e 48 54 8
e 48 57 9
e 48 66 2
e 48 75 8
e 49 59 3
e 49 69 7
e 49 79 10
e 49 57 2
e 49 65 5
e 49 73 8
e 49 50 10
e 49 51 10
e 49 52 3
e 49 53 7
e 49 54 9
e 49 58 5
e 49 67 9
e 49 76 9
e 50 60 8
e 50 70 7
e 50 80 9
e 50 58 8
e 50 66 2
e 50 74 10
e 50 51 9
e 50 52 6
e 50 53 7
e 50 54 4
e 50 59 5
e 50 68 4
e 50 77 8
e 51 61 10
e 51 71 8
e 51 81 5
e 51 59 5
e 51 67 2
e 51 75 9
e 51 52 6
e 51 53 7
e 51 54 1
e 51 60 9
e 51 69 2
e 51 78 9
e 52 62 6
e 52 72 4
e 52 60 3
e 52 68 8
e 52 76 5
e 52 53 2
e 52 54 10
e 52 61 4
e 52 70 2
e 52 79 2
e 53 63 6
e 53 61 8
e 53 69 3
e 53 77 2
e 53 54 8
e 53 62 4
e 53 71 6
e 53 80 6
e 54 62 3
e 54 70 2
e 54 78 7
e 54 63 8
e 54 72 1
e 54 81 7
e 55 65 3
e 55 75 9
e 55 56 4
e 55 57 9
e 55 58 9
e 55 59 6
e 55 60 2
e 55 61 3
e 55 62 2
e 55 63 8
e 55 64 5
e 55 73 8
e 56 66 10
e 56 76 8
e 56 64 8
e 56 57 8
e 56 58 9
e 56 59 8
e 56 60 1
e 56 61 3
e 56 62 1
e 56 63 6
e 56 65 1
e 56 74 1
e 57 67 5
e 57 77 10
e 57 65 10
e 57 73 5
e 57 58 7
e 57 59 8
e 57 60 3
e 57 61 6
e 57 62 8
e 57 63 1
e 57 66 4
e 57 75 10
e 58 68 3
e 58 78 5
e 58 66 6
e 58 74 8
e 58 59 9
e 58 60 9
e 58 61 3
e 58 62 2
e 58 63 8
e 58 67 7
e 58 76 9
e 59 69 5
e 59 79 5
e 59 67 7
e 59 75 3
e 59 60 5
e 59 61 1
e 59 62 4
e 59 63 10
e 59 68 4
e 59 77 4
e 60 70 7
e 60 80 5
e 60 68 7
e 60 76 10
e 60 61 7
e 60 62 7
e 60 63 8
e 60 69 3
e 60 78 8
e 61 71 8
e 61 81 4
e 61 69 1
e 61 77 6
e 61 62 8
e 61 63 3
e 61 70 4
e 61 79 10
e 62 72 4
e 62 70 10
e 62 78 1
e 62 63 3
e 62 71 3
e 62 80 1
e 63 71 3
e 63 79 1
e 63 72 2
e 63 81 4
e 64 74 6
e 64 65 4
e 64 66 10
e 64 67 4
e 64 68 4
e 64 69 2
e 64 70 10
e 64 71 7
e 64 72 7
e 64 73 8
e 65 75 8
e 65 73 3
e 65 66 6
e 65 67 4
e 65 68 6
e 65 69 5
e 65 70 5
e 65 71 6
e 65 72 10
e 65 74 8
e 66 76 3
e 66 74 10
e 66 67 1
e 66 68 8
e 66 69 10
e 66 70 7
e 66 71 7
e 66 72 3
e 66 75 7
e 67 77 6
e 67 75 3
e 67 68 6
e 67 69 7
e 67 70 8
e 67 71 8
e 67 72 7
e 67 76 10
e 68 78 2
e 68 76 2
e 68 69 1
e 68 70 4
e 68 71 8
e 68 72 1
e 68 77 6
e 69 79 3
e 69 77 6
e 69 70 3
e 69 71 4
e 69 72 2
e 69 78 10
e 70 80 1
e 70 78 7
e 70 71 7
e 70 72 4
e 70 79 2
e 71 81 10
e 71 79 7
e 71 72 2
e 71 80 2
e 72 80 4
e 72 81 10
e 73 74 3
e 73 75 6
e 73 76 4
e 73 77 7
e 73 78 7
e 73 79 10
e 73 80 9
e 73 81 10
e 74 75 6
e 74 76 2
e 74 77 10
e 74 78 3
e 74 79 9
e 74 80 4
e 74 81 8
e 75 76 4
e 75 77 1
e 75 78 3
e 75 79 1
e 75 80 6
e 75 81 10
e 76 77 7
e 76 78 8
e 76 79 6
e 76 80 3
e 76 81 10
e 77 78 10
e 77 79 1
e 77 80 4
e 77 81 4
e 78 79 4
e 78 80 5
e 78 81 2
e 79 80 8
e 79 81 2
e 80 81 9